p edge 62 159
v 1 2
v 2 3
v 3 4
v 4 5
v 5 6
v 6 7
v 7 8
v 8 9
v 9 10
v 10 11
v 11 12
v 12 13
v 13 14
v 14 15
v 15 16
v 16 17
v 17 18
v 18 19
v 19 20
v 20 21
v 21 22
v 22 23
v 23 24
v 24 25
v 25 26
v 26 27
v 27 28
v 28 29
v 29 30
v 30 31
v 31 32
v 32 33
v 33 34
v 34 35
v 35 36
v 36 37
v 37 38
v 38 39
v 39 40
v 40 41
v 41 42
v 42 43
v 43 44
v 44 45
v 45 46
v 46 47
v 47 48
v 48 49
v 49 50
v 50 51
v 51 52
v 52 53
v 53 54
v 54 55
v 55 56
v 56 57
v 57 58
v 58 59
v 59 60
v 60 61
v 61 62
v 62 63
e 11 1
e 15 1
e 16 1
e 41 1
e 43 1
e 48 1
e 18 2
e 20 2
e 27 2
e 28 2
e 29 2
e 37 2
e 42 2
e 55 2
e 11 3
e 43 3
e 45 3
e 62 3
e 9 4
e 15 4
e 60 4
e 52 5
e 10 6
e 14 6
e 57 6
e 58 6
e 10 7
e 14 7
e 18 7
e 55 7
e 57 7
e 58 7
e 20 8
e 28 8
e 31 8
e 41 8
e 55 8
e 21 9
e 29 9
e 38 9
e 46 9
e 60 9
e 14 10
e 18 10
e 33 10
e 42 10
e 58 10
e 30 11
e 43 11
e 48 11
e 52 12
e 34 13
e 18 14
e 33 14
e 42 14
e 55 14
e 58 14
e 17 15
e 25 15
e 34 15
e 35 15
e 38 15
e 39 15
e 41 15
e 44 15
e 51 15
e 53 15
e 19 16
e 25 16
e 41 16
e 46 16
e 56 16
e 60 16
e 21 17
e 34 17
e 38 17
e 39 17
e 51 17
e 23 18
e 26 18
e 28 18
e 32 18
e 58 18
e 21 19
e 22 19
e 25 19
e 30 19
e 46 19
e 52 19
e 31 20
e 55 20
e 29 21
e 37 21
e 39 21
e 45 21
e 48 21
e 51 21
e 30 22
e 34 22
e 38 22
e 46 22
e 52 22
e 37 24
e 46 24
e 52 24
e 30 25
e 46 25
e 52 25
e 27 26
e 28 26
e 28 27
e 31 29
e 48 29
e 36 30
e 44 30
e 46 30
e 52 30
e 53 30
e 43 31
e 48 31
e 61 33
e 35 34
e 38 34
e 39 34
e 41 34
e 44 34
e 51 34
e 38 35
e 45 35
e 50 35
e 38 37
e 40 37
e 41 37
e 60 37
e 41 38
e 44 38
e 46 38
e 62 38
e 44 39
e 45 39
e 53 39
e 59 39
e 58 40
e 53 41
e 55 42
e 58 42
e 48 43
e 51 43
e 47 44
e 54 44
e 51 46
e 52 46
e 60 46
e 50 47
e 58 49
e 52 51
e 56 52
e 62 54
e 58 55
